\ SCIP STATISTICS
\   Problem name     : OR example
\   Variables        : 2 (0 binary, 0 integer, 0 implicit integer, 2 continuous)
\   Constraints      : 3
Maximize
 Obj: +3 x1 +5 x2
Subject to
 con1_lhs: +1 x1 >= +0
 con1_rhs: +1 x1 <= +4
 con2_lhs: +2 x2 >= +0
 con2_rhs: +2 x2 <= +12
 con3_lhs: +3 x1 +2 x2 >= +0
 con3_rhs: +3 x1 +2 x2 <= +18
Bounds
 0 <= x1 <= 2147483647
 0 <= x2 <= 2147483647
End
